p edge 40 39 17
e 1 16
e 1 31
e 2 21
e 2 37
e 3 26
e 3 33
e 3 34
e 3 21
e 4 24
e 4 26
e 5 9
e 6 16
e 7 36
e 8 40
e 9 20
e 9 35
e 9 36
e 10 18
e 10 11
e 11 33
e 12 23
e 13 17
e 13 26
e 14 40
e 15 37
e 19 23
e 19 37
e 20 25
e 20 31
e 22 26
e 23 28
e 27 32
e 27 39
e 29 39
e 29 36
e 30 37
e 34 38
e 36 37
e 36 40
